10J3M/DAT/10J3MNLL-20.dat
10 3
21.437 21.437
30.201 30.201
24.5481 24.5481
23.9471 23.9471
17.2883 17.2883
23.6419 23.6419
22.0286 22.0286
32.4086 32.4086
29.4939 29.4939
15.5303 15.5303
80.1749