10J3M/SOL/10J3MNLL-20.sol
solution status: optimal solution found
objective value:                              83.9108
x#1#2                               0.194116789941855 	(obj:0)
x#1#3                               0.805883210058145 	(obj:0)
x#2#1                                               1 	(obj:0)
x#3#3                                               1 	(obj:0)
x#4#1                                0.63188202247191 	(obj:0)
x#4#2                                0.36811797752809 	(obj:0)
x#5#2                                               1 	(obj:0)
x#6#2                                               1 	(obj:0)
x#7#1                                               1 	(obj:0)
x#8#3                                               1 	(obj:0)
x#9#1                                               1 	(obj:0)
x#10#2                                              1 	(obj:0)
z                                             83.9108 	(obj:1)
